c
c Generated WCNF file
c
p wcnf 154 715 39620
39620 18 0
39620 -19 1 0
39620 -19 2 0
39620 19 -1 -2 0
39620 -20 1 0
39620 -20 3 0
39620 20 -1 -3 0
39620 -21 1 0
39620 -21 4 0
39620 21 -1 -4 0
39620 -22 1 0
39620 -22 5 0
39620 22 -1 -5 0
39620 -23 1 0
39620 -23 6 0
39620 23 -1 -6 0
39620 -24 1 0
39620 -24 7 0
39620 24 -1 -7 0
39620 -25 1 0
39620 -25 8 0
39620 25 -1 -8 0
39620 -26 1 0
39620 -26 9 0
39620 26 -1 -9 0
39620 -27 1 0
39620 -27 10 0
39620 27 -1 -10 0
39620 -28 1 0
39620 -28 11 0
39620 28 -1 -11 0
39620 -29 1 0
39620 -29 12 0
39620 29 -1 -12 0
39620 -30 1 0
39620 -30 13 0
39620 30 -1 -13 0
39620 -31 1 0
39620 -31 14 0
39620 31 -1 -14 0
39620 -32 1 0
39620 -32 15 0
39620 32 -1 -15 0
39620 -33 1 0
39620 -33 16 0
39620 33 -1 -16 0
39620 -34 1 0
39620 -34 17 0
39620 34 -1 -17 0
39620 -35 2 0
39620 -35 3 0
39620 35 -2 -3 0
39620 -36 2 0
39620 -36 4 0
39620 36 -2 -4 0
39620 -37 2 0
39620 -37 5 0
39620 37 -2 -5 0
39620 -38 2 0
39620 -38 6 0
39620 38 -2 -6 0
39620 -39 2 0
39620 -39 7 0
39620 39 -2 -7 0
39620 -40 2 0
39620 -40 8 0
39620 40 -2 -8 0
39620 -41 2 0
39620 -41 9 0
39620 41 -2 -9 0
39620 -42 2 0
39620 -42 10 0
39620 42 -2 -10 0
39620 -43 2 0
39620 -43 11 0
39620 43 -2 -11 0
39620 -44 2 0
39620 -44 12 0
39620 44 -2 -12 0
39620 -45 2 0
39620 -45 13 0
39620 45 -2 -13 0
39620 -46 2 0
39620 -46 14 0
39620 46 -2 -14 0
39620 -47 2 0
39620 -47 15 0
39620 47 -2 -15 0
39620 -48 2 0
39620 -48 16 0
39620 48 -2 -16 0
39620 -49 2 0
39620 -49 17 0
39620 49 -2 -17 0
39620 -50 3 0
39620 -50 4 0
39620 50 -3 -4 0
39620 -51 3 0
39620 -51 5 0
39620 51 -3 -5 0
39620 -52 3 0
39620 -52 6 0
39620 52 -3 -6 0
39620 -53 3 0
39620 -53 7 0
39620 53 -3 -7 0
39620 -54 3 0
39620 -54 8 0
39620 54 -3 -8 0
39620 -55 3 0
39620 -55 9 0
39620 55 -3 -9 0
39620 -56 3 0
39620 -56 10 0
39620 56 -3 -10 0
39620 -57 3 0
39620 -57 11 0
39620 57 -3 -11 0
39620 -58 3 0
39620 -58 12 0
39620 58 -3 -12 0
39620 -59 3 0
39620 -59 13 0
39620 59 -3 -13 0
39620 -60 3 0
39620 -60 14 0
39620 60 -3 -14 0
39620 -61 3 0
39620 -61 15 0
39620 61 -3 -15 0
39620 -62 3 0
39620 -62 16 0
39620 62 -3 -16 0
39620 -63 3 0
39620 -63 17 0
39620 63 -3 -17 0
39620 -64 4 0
39620 -64 5 0
39620 64 -4 -5 0
39620 -65 4 0
39620 -65 6 0
39620 65 -4 -6 0
39620 -66 4 0
39620 -66 7 0
39620 66 -4 -7 0
39620 -67 4 0
39620 -67 8 0
39620 67 -4 -8 0
39620 -68 4 0
39620 -68 9 0
39620 68 -4 -9 0
39620 -69 4 0
39620 -69 10 0
39620 69 -4 -10 0
39620 -70 4 0
39620 -70 11 0
39620 70 -4 -11 0
39620 -71 4 0
39620 -71 12 0
39620 71 -4 -12 0
39620 -72 4 0
39620 -72 13 0
39620 72 -4 -13 0
39620 -73 4 0
39620 -73 14 0
39620 73 -4 -14 0
39620 -74 4 0
39620 -74 15 0
39620 74 -4 -15 0
39620 -75 4 0
39620 -75 16 0
39620 75 -4 -16 0
39620 -76 4 0
39620 -76 17 0
39620 76 -4 -17 0
39620 -77 5 0
39620 -77 6 0
39620 77 -5 -6 0
39620 -78 5 0
39620 -78 7 0
39620 78 -5 -7 0
39620 -79 5 0
39620 -79 8 0
39620 79 -5 -8 0
39620 -80 5 0
39620 -80 9 0
39620 80 -5 -9 0
39620 -81 5 0
39620 -81 10 0
39620 81 -5 -10 0
39620 -82 5 0
39620 -82 11 0
39620 82 -5 -11 0
39620 -83 5 0
39620 -83 12 0
39620 83 -5 -12 0
39620 -84 5 0
39620 -84 13 0
39620 84 -5 -13 0
39620 -85 5 0
39620 -85 14 0
39620 85 -5 -14 0
39620 -86 5 0
39620 -86 15 0
39620 86 -5 -15 0
39620 -87 5 0
39620 -87 16 0
39620 87 -5 -16 0
39620 -88 5 0
39620 -88 17 0
39620 88 -5 -17 0
39620 -89 6 0
39620 -89 7 0
39620 89 -6 -7 0
39620 -90 6 0
39620 -90 8 0
39620 90 -6 -8 0
39620 -91 6 0
39620 -91 9 0
39620 91 -6 -9 0
39620 -92 6 0
39620 -92 10 0
39620 92 -6 -10 0
39620 -93 6 0
39620 -93 11 0
39620 93 -6 -11 0
39620 -94 6 0
39620 -94 12 0
39620 94 -6 -12 0
39620 -95 6 0
39620 -95 13 0
39620 95 -6 -13 0
39620 -96 6 0
39620 -96 14 0
39620 96 -6 -14 0
39620 -97 6 0
39620 -97 15 0
39620 97 -6 -15 0
39620 -98 6 0
39620 -98 16 0
39620 98 -6 -16 0
39620 -99 6 0
39620 -99 17 0
39620 99 -6 -17 0
39620 -100 7 0
39620 -100 8 0
39620 100 -7 -8 0
39620 -101 7 0
39620 -101 9 0
39620 101 -7 -9 0
39620 -102 7 0
39620 -102 10 0
39620 102 -7 -10 0
39620 -103 7 0
39620 -103 11 0
39620 103 -7 -11 0
39620 -104 7 0
39620 -104 12 0
39620 104 -7 -12 0
39620 -105 7 0
39620 -105 13 0
39620 105 -7 -13 0
39620 -106 7 0
39620 -106 14 0
39620 106 -7 -14 0
39620 -107 7 0
39620 -107 15 0
39620 107 -7 -15 0
39620 -108 7 0
39620 -108 16 0
39620 108 -7 -16 0
39620 -109 7 0
39620 -109 17 0
39620 109 -7 -17 0
39620 -110 8 0
39620 -110 9 0
39620 110 -8 -9 0
39620 -111 8 0
39620 -111 10 0
39620 111 -8 -10 0
39620 -112 8 0
39620 -112 11 0
39620 112 -8 -11 0
39620 -113 8 0
39620 -113 12 0
39620 113 -8 -12 0
39620 -114 8 0
39620 -114 13 0
39620 114 -8 -13 0
39620 -115 8 0
39620 -115 14 0
39620 115 -8 -14 0
39620 -116 8 0
39620 -116 15 0
39620 116 -8 -15 0
39620 -117 8 0
39620 -117 16 0
39620 117 -8 -16 0
39620 -118 8 0
39620 -118 17 0
39620 118 -8 -17 0
39620 -119 9 0
39620 -119 10 0
39620 119 -9 -10 0
39620 -120 9 0
39620 -120 11 0
39620 120 -9 -11 0
39620 -121 9 0
39620 -121 12 0
39620 121 -9 -12 0
39620 -122 9 0
39620 -122 13 0
39620 122 -9 -13 0
39620 -123 9 0
39620 -123 14 0
39620 123 -9 -14 0
39620 -124 9 0
39620 -124 15 0
39620 124 -9 -15 0
39620 -125 9 0
39620 -125 16 0
39620 125 -9 -16 0
39620 -126 9 0
39620 -126 17 0
39620 126 -9 -17 0
39620 -127 10 0
39620 -127 11 0
39620 127 -10 -11 0
39620 -128 10 0
39620 -128 12 0
39620 128 -10 -12 0
39620 -129 10 0
39620 -129 13 0
39620 129 -10 -13 0
39620 -130 10 0
39620 -130 14 0
39620 130 -10 -14 0
39620 -131 10 0
39620 -131 15 0
39620 131 -10 -15 0
39620 -132 10 0
39620 -132 16 0
39620 132 -10 -16 0
39620 -133 10 0
39620 -133 17 0
39620 133 -10 -17 0
39620 -134 11 0
39620 -134 12 0
39620 134 -11 -12 0
39620 -135 11 0
39620 -135 13 0
39620 135 -11 -13 0
39620 -136 11 0
39620 -136 14 0
39620 136 -11 -14 0
39620 -137 11 0
39620 -137 15 0
39620 137 -11 -15 0
39620 -138 11 0
39620 -138 16 0
39620 138 -11 -16 0
39620 -139 11 0
39620 -139 17 0
39620 139 -11 -17 0
39620 -140 12 0
39620 -140 13 0
39620 140 -12 -13 0
39620 -141 12 0
39620 -141 14 0
39620 141 -12 -14 0
39620 -142 12 0
39620 -142 15 0
39620 142 -12 -15 0
39620 -143 12 0
39620 -143 16 0
39620 143 -12 -16 0
39620 -144 12 0
39620 -144 17 0
39620 144 -12 -17 0
39620 -145 13 0
39620 -145 14 0
39620 145 -13 -14 0
39620 -146 13 0
39620 -146 15 0
39620 146 -13 -15 0
39620 -147 13 0
39620 -147 16 0
39620 147 -13 -16 0
39620 -148 13 0
39620 -148 17 0
39620 148 -13 -17 0
39620 -149 14 0
39620 -149 15 0
39620 149 -14 -15 0
39620 -150 14 0
39620 -150 16 0
39620 150 -14 -16 0
39620 -151 14 0
39620 -151 17 0
39620 151 -14 -17 0
39620 -152 15 0
39620 -152 16 0
39620 152 -15 -16 0
39620 -153 15 0
39620 -153 17 0
39620 153 -15 -17 0
39620 -154 16 0
39620 -154 17 0
39620 154 -16 -17 0
16816 1 0
39610 -1 0
23760 19 0
39610 -19 0
49450 20 0
39610 -20 0
33098 21 0
39610 -21 0
42102 22 0
39610 -22 0
26252 23 0
39610 -23 0
47402 24 0
39610 -24 0
47596 25 0
39610 -25 0
40352 26 0
39610 -26 0
36040 27 0
39610 -27 0
33288 28 0
39610 -28 0
38866 29 0
39610 -29 0
39250 30 0
39610 -30 0
32672 31 0
39610 -31 0
34300 32 0
39610 -32 0
42610 33 0
39610 -33 0
36942 34 0
39610 -34 0
18393 2 0
39610 -2 0
44544 35 0
39610 -35 0
33278 36 0
39610 -36 0
38188 37 0
39610 -37 0
36482 38 0
39610 -38 0
33536 39 0
39610 -39 0
35374 40 0
39610 -40 0
44880 41 0
39610 -41 0
36584 42 0
39610 -42 0
36924 43 0
39610 -43 0
35998 44 0
39610 -44 0
38434 45 0
39610 -45 0
41854 46 0
39610 -46 0
37896 47 0
39610 -47 0
37870 48 0
39610 -48 0
40016 49 0
39610 -49 0
53249 3 0
39610 -3 0
37766 50 0
39610 -50 0
32668 51 0
39610 -51 0
47300 52 0
39610 -52 0
44250 53 0
39610 -53 0
39734 54 0
39610 -54 0
41194 55 0
39610 -55 0
45670 56 0
39610 -56 0
40838 57 0
39610 -57 0
46700 58 0
39610 -58 0
35586 59 0
39610 -59 0
40748 60 0
39610 -60 0
34204 61 0
39610 -61 0
39730 62 0
39610 -62 0
37348 63 0
39610 -63 0
30873 4 0
39610 -4 0
43512 64 0
39610 -64 0
37010 65 0
39610 -65 0
44268 66 0
39610 -66 0
39188 67 0
39610 -67 0
38348 68 0
39610 -68 0
37398 69 0
39610 -69 0
34536 70 0
39610 -70 0
41950 71 0
39610 -71 0
41674 72 0
39610 -72 0
40030 73 0
39610 -73 0
37718 74 0
39610 -74 0
36010 75 0
39610 -75 0
40770 76 0
39610 -76 0
33525 5 0
39610 -5 0
45550 77 0
39610 -77 0
30014 78 0
39610 -78 0
44292 79 0
39610 -79 0
35248 80 0
39610 -80 0
41740 81 0
39610 -81 0
47074 82 0
39610 -82 0
39730 83 0
39610 -83 0
38282 84 0
39610 -84 0
40154 85 0
39610 -85 0
44872 86 0
39610 -86 0
43270 87 0
39610 -87 0
38856 88 0
39610 -88 0
29022 6 0
39610 -6 0
47348 89 0
39610 -89 0
43626 90 0
39610 -90 0
39154 91 0
39610 -91 0
37928 92 0
39610 -92 0
34410 93 0
39610 -93 0
39506 94 0
39610 -94 0
40000 95 0
39610 -95 0
36038 96 0
39610 -96 0
37724 97 0
39610 -97 0
40750 98 0
39610 -98 0
38218 99 0
39610 -99 0
17733 7 0
39610 -7 0
34322 100 0
39610 -100 0
34766 101 0
39610 -101 0
40686 102 0
39610 -102 0
45558 103 0
39610 -103 0
36462 104 0
39610 -104 0
39946 105 0
39610 -105 0
45350 106 0
39610 -106 0
47016 107 0
39610 -107 0
38110 108 0
39610 -108 0
42104 109 0
39610 -109 0
28058 8 0
39610 -8 0
43532 110 0
39610 -110 0
40634 111 0
39610 -111 0
43242 112 0
39610 -112 0
39330 113 0
39610 -113 0
38886 114 0
39610 -114 0
44870 115 0
39610 -115 0
38364 116 0
39610 -116 0
36070 117 0
39610 -117 0
41756 118 0
39610 -118 0
32320 9 0
39610 -9 0
48384 119 0
39610 -119 0
38774 120 0
39610 -120 0
46442 121 0
39610 -121 0
41352 122 0
39610 -122 0
35692 123 0
39610 -123 0
39486 124 0
39610 -124 0
40630 125 0
39610 -125 0
38682 126 0
39610 -126 0
27106 10 0
39610 -10 0
38842 127 0
39610 -127 0
31848 128 0
39610 -128 0
40562 129 0
39610 -129 0
39816 130 0
39610 -130 0
45612 131 0
39610 -131 0
40810 132 0
39610 -132 0
40364 133 0
39610 -133 0
36572 11 0
39610 -11 0
40786 134 0
39610 -134 0
40000 135 0
39610 -135 0
37448 136 0
39610 -136 0
36936 137 0
39610 -137 0
38770 138 0
39610 -138 0
38508 139 0
39610 -139 0
24659 12 0
39610 -12 0
39986 140 0
39610 -140 0
41974 141 0
39610 -141 0
46896 142 0
39610 -142 0
40870 143 0
39610 -143 0
41002 144 0
39610 -144 0
42646 13 0
39610 -13 0
39504 145 0
39610 -145 0
37580 146 0
39610 -146 0
40690 147 0
39610 -147 0
38334 148 0
39610 -148 0
41325 14 0
39610 -14 0
36536 149 0
39610 -149 0
42730 150 0
39610 -150 0
37348 151 0
39610 -151 0
42583 15 0
39610 -15 0
39130 152 0
39610 -152 0
37522 153 0
39610 -153 0
34570 16 0
39610 -16 0
41350 154 0
39610 -154 0
43235 17 0
39610 -17 0
